--- Job trnsport.gms Start 10/31/20 16:32:39 25.1.3 r4e34d435fbd WEX-WEI x86 64bit/MS Windows
GAMS 25.1.3   Copyright (C) 1987-2018 GAMS Development. All rights reserved
Licensee: CS 635 Spring 2014                             G140121/0001AO-GEN
          Prof. Michael Ferris, University of Wisconsin-Madison      DC2937
          License for teaching and research at degree granting institutions
--- Starting compilation
--- trnsport.gms(66) 3 Mb
--- Starting execution: elapsed 0:00:00.000
--- trnsport.gms(43) 4 Mb
--- Generating LP model transport
--- trnsport.gms(64) 4 Mb
---   6 rows  7 columns  19 non-zeroes
--- Executing XPRESS: elapsed 0:00:00.031

FICO-Xpress      28.2.0 r750fa45 Released Aug 19, 2019 WEI x86 64bit/MS Window

Reading parameter(s) from "C:\Users\Johannes\AppData\Local\Temp\tmpy6smw4ie\xpress.opt"
>>  algorithm=barrier
Finished reading from "C:\Users\Johannes\AppData\Local\Temp\tmpy6smw4ie\xpress.opt"
Xpress Optimizer 33.01
Xpress Solver 64bit v8.5.8 Nov 14 2018
(c) Copyright Fair Isaac Corporation 1983-2017. All rights reserved
Licensed for use by: GAMS Development Corp. for GAMS

 
Reading Problem transport
Problem Statistics
           5 (      0 spare) rows
           6 (      0 spare) structural columns
          12 (      0 spare) non-zero elements
Global Statistics
           0 entities        0 sets        0 set members
FICO Xpress v8.5.8, solve started 16:32:39, Oct 31, 2020
Minimizing LP transport
Original problem has:
         5 rows            6 cols           12 elements
Presolved problem has:
         5 rows            6 cols           12 elements
Barrier cache sizes : L1=32K L2=3072K
Using AVX support
Cores per CPU (CORESPERCPU): 4
Barrier starts, with L2 cache 768K
Matrix ordering - Dense cols.:      0   NZ(L):        32   Flops:           76
 
  Its   P.inf      D.inf      U.inf      Primal obj.     Dual obj.      Compl.
   0  1.00e+002  1.23e+000  0.00e+000  1.3651875e+002  0.0000000e+000  1.3e+003
   1  7.11e-014  7.61e-003  0.00e+000  1.6396909e+002  1.1391449e+002  5.6e+001
   2  1.08e-011  2.34e-005  0.00e+000  1.5860019e+002  1.5125211e+002  7.4e+000
   3  3.75e-013  1.65e-017  0.00e+000  1.5387579e+002  1.5345730e+002  4.2e-001
   4  1.50e-011  2.78e-017  0.00e+000  1.5367531e+002  1.5367471e+002  6.0e-004
   5  2.46e-012  2.78e-017  0.00e+000  1.5367500e+002  1.5367500e+002  6.0e-007
Barrier method finished in 0 seconds
Crossover starts
 
   Its         Obj Value      S   Ninf  Nneg        Sum Inf  Time
     1        153.675000      P      0     0        .000000     0
     0        153.675000      N      0     0        .000000     0
     0        153.675000      D      0     0        .000000     0
Crossover successful
Objective function value:   153.675000 time: 0
     0        153.675000      P      0     0        .000000     0
Uncrunching matrix
Optimal solution found
Barrier solved problem
  5 barrier and 1 simplex iterations in 0s

Final objective                         : 1.536750000000000e+02
  Max primal violation      (abs / rel) :       0.0 /       0.0
  Max dual violation        (abs / rel) :       0.0 /       0.0
  Max complementarity viol. (abs / rel) :       0.0 /       0.0
All values within tolerances
optimal LP solution found: objective value 153.675
Barrier iterations: 5
--- Restarting execution
--- trnsport.gms(64) 2 Mb
--- Reading solution for model transport
--- trnsport.gms(66) 3 Mb
--- GDX File C:\Users\Johannes\AppData\Local\Temp\tmpy6smw4ie\_gams_py_gdb2.gdx
*** Status: Normal completion
--- Job trnsport.gms Stop 10/31/20 16:32:40 elapsed 0:00:01.109
